RLT04
Position Depot: Random
Horizon for Depot: Large
Position of customers: Random
Distribution of the demand: Medium
Width of time windows: Tight
Distribution of the service: Small

VEHICLE 
NUMBER 	 CAPACITY 
 5 	 	 410 
 
CUSTOMER
CUST NO. 	 XCOORD.  	 YCOORD. 	 DEMAND 	 READY TIME 	 DUE DATE 	 SERVICE TIME 
 0 	 	 309 	 	 521 	 	 0 	 	 0 	 	 3566 	 	 0 
  1 	 	 469 	 	 84 	 	 9 	 	 1038 	 	 1167 	 	 63 
  2 	 	 437 	 	 570 	 	 4 	 	 945 	 	 1066 	 	 55 
  3 	 	 427 	 	 401 	 	 5 	 	 1110 	 	 1284 	 	 55 
  4 	 	 422 	 	 229 	 	 8 	 	 406 	 	 587 	 	 72 
  5 	 	 866 	 	 582 	 	 9 	 	 558 	 	 616 	 	 55 
  6 	 	 330 	 	 250 	 	 55 	 	 760 	 	 818 	 	 78 
  7 	 	 135 	 	 87 	 	 2 	 	 3219 	 	 3281 	 	 59 
  8 	 	 506 	 	 128 	 	 7 	 	 1900 	 	 2025 	 	 50 
  9 	 	 621 	 	 256 	 	 2 	 	 2408 	 	 2481 	 	 90 
  10 	 	 546 	 	 572 	 	 89 	 	 1467 	 	 1525 	 	 64 
  11 	 	 964 	 	 552 	 	 3 	 	 3476 	 	 3531 	 	 98 
  12 	 	 949 	 	 390 	 	 6 	 	 2671 	 	 2819 	 	 85 
  13 	 	 823 	 	 845 	 	 8 	 	 1194 	 	 1327 	 	 63 
  14 	 	 437 	 	 974 	 	 7 	 	 3057 	 	 3171 	 	 100 
  15 	 	 4 	 	 665 	 	 2 	 	 1184 	 	 1290 	 	 86 
  16 	 	 591 	 	 387 	 	 7 	 	 209 	 	 409 	 	 55 
  17 	 	 863 	 	 249 	 	 9 	 	 1734 	 	 1925 	 	 69 
  18 	 	 516 	 	 786 	 	 8 	 	 1915 	 	 2059 	 	 59 
  19 	 	 560 	 	 119 	 	 9 	 	 3187 	 	 3240 	 	 81 
  20 	 	 640 	 	 678 	 	 3 	 	 539 	 	 669 	 	 75 
  21 	 	 452 	 	 279 	 	 79 	 	 2352 	 	 2496 	 	 95 
  22 	 	 925 	 	 406 	 	 93 	 	 2431 	 	 2628 	 	 55 
  23 	 	 22 	 	 220 	 	 4 	 	 2427 	 	 2565 	 	 77 
  24 	 	 570 	 	 783 	 	 55 	 	 297 	 	 406 	 	 91 
  25 	 	 339 	 	 245 	 	 4 	 	 2120 	 	 2211 	 	 85 
  26 	 	 86 	 	 522 	 	 5 	 	 2552 	 	 2666 	 	 87 
  27 	 	 908 	 	 726 	 	 6 	 	 1662 	 	 1807 	 	 99 
  28 	 	 210 	 	 1 	 	 8 	 	 488 	 	 583 	 	 74 
  29 	 	 2 	 	 186 	 	 6 	 	 3319 	 	 3424 	 	 76 
  30 	 	 674 	 	 193 	 	 65 	 	 1612 	 	 1812 	 	 62 
  31 	 	 425 	 	 584 	 	 3 	 	 2367 	 	 2417 	 	 90 
  32 	 	 212 	 	 102 	 	 3 	 	 2166 	 	 2316 	 	 89 
  33 	 	 368 	 	 188 	 	 98 	 	 2675 	 	 2768 	 	 60 
  34 	 	 914 	 	 524 	 	 59 	 	 2011 	 	 2083 	 	 78 
  35 	 	 187 	 	 808 	 	 68 	 	 1024 	 	 1163 	 	 78 
  36 	 	 248 	 	 586 	 	 4 	 	 2613 	 	 2718 	 	 100 
  37 	 	 275 	 	 245 	 	 95 	 	 3282 	 	 3442 	 	 97 
  38 	 	 730 	 	 286 	 	 4 	 	 1385 	 	 1560 	 	 76 
  39 	 	 825 	 	 206 	 	 9 	 	 3203 	 	 3333 	 	 52 
  40 	 	 238 	 	 227 	 	 7 	 	 409 	 	 598 	 	 54 
  41 	 	 779 	 	 426 	 	 82 	 	 1476 	 	 1643 	 	 56 
  42 	 	 815 	 	 207 	 	 4 	 	 2181 	 	 2285 	 	 77 
  43 	 	 538 	 	 859 	 	 10 	 	 3385 	 	 3566 	 	 88 
  44 	 	 482 	 	 770 	 	 2 	 	 1478 	 	 1603 	 	 82 
  45 	 	 814 	 	 975 	 	 3 	 	 3397 	 	 3554 	 	 92 
  46 	 	 814 	 	 555 	 	 4 	 	 448 	 	 556 	 	 55 
  47 	 	 260 	 	 698 	 	 4 	 	 1958 	 	 2073 	 	 52 
  48 	 	 958 	 	 403 	 	 8 	 	 1656 	 	 1758 	 	 53 
  49 	 	 292 	 	 939 	 	 3 	 	 1285 	 	 1473 	 	 93 
  50 	 	 303 	 	 625 	 	 78 	 	 1679 	 	 1806 	 	 73 
  51 	 	 752 	 	 320 	 	 8 	 	 1548 	 	 1682 	 	 52 
  52 	 	 592 	 	 796 	 	 2 	 	 2659 	 	 2743 	 	 65 
  53 	 	 360 	 	 901 	 	 9 	 	 3402 	 	 3566 	 	 98 
  54 	 	 408 	 	 256 	 	 76 	 	 1250 	 	 1336 	 	 70 
  55 	 	 70 	 	 211 	 	 63 	 	 1548 	 	 1728 	 	 85 
  56 	 	 92 	 	 693 	 	 4 	 	 418 	 	 503 	 	 74 
  57 	 	 939 	 	 114 	 	 9 	 	 2352 	 	 2464 	 	 79 
  58 	 	 790 	 	 494 	 	 3 	 	 3062 	 	 3113 	 	 72 
  59 	 	 976 	 	 57 	 	 79 	 	 716 	 	 893 	 	 74 
  60 	 	 206 	 	 870 	 	 10 	 	 263 	 	 400 	 	 62 
  61 	 	 490 	 	 287 	 	 9 	 	 1947 	 	 2126 	 	 97 
  62 	 	 869 	 	 540 	 	 1 	 	 585 	 	 684 	 	 50 
  63 	 	 858 	 	 314 	 	 2 	 	 727 	 	 783 	 	 74 
  64 	 	 296 	 	 522 	 	 68 	 	 517 	 	 610 	 	 69 
  65 	 	 954 	 	 520 	 	 5 	 	 3402 	 	 3566 	 	 89 
  66 	 	 216 	 	 520 	 	 1 	 	 770 	 	 916 	 	 70 
  67 	 	 993 	 	 364 	 	 1 	 	 2679 	 	 2830 	 	 55 
  68 	 	 161 	 	 505 	 	 5 	 	 710 	 	 770 	 	 94 
  69 	 	 493 	 	 472 	 	 6 	 	 2446 	 	 2627 	 	 97 
  70 	 	 943 	 	 552 	 	 9 	 	 587 	 	 698 	 	 76 
  71 	 	 819 	 	 684 	 	 4 	 	 990 	 	 1116 	 	 84 
  72 	 	 922 	 	 474 	 	 90 	 	 1786 	 	 1840 	 	 81 
  73 	 	 720 	 	 499 	 	 51 	 	 1666 	 	 1815 	 	 61 
  74 	 	 292 	 	 574 	 	 4 	 	 2346 	 	 2498 	 	 97 
  75 	 	 714 	 	 26 	 	 8 	 	 1321 	 	 1463 	 	 78 
  76 	 	 316 	 	 80 	 	 53 	 	 2059 	 	 2189 	 	 60 
  77 	 	 139 	 	 54 	 	 4 	 	 3467 	 	 3527 	 	 52 
  78 	 	 14 	 	 957 	 	 79 	 	 3265 	 	 3434 	 	 99 
  79 	 	 439 	 	 248 	 	 2 	 	 933 	 	 1055 	 	 69 
  80 	 	 235 	 	 25 	 	 7 	 	 2659 	 	 2782 	 	 81 
  81 	 	 772 	 	 287 	 	 5 	 	 401 	 	 570 	 	 58 
  82 	 	 287 	 	 320 	 	 10 	 	 2140 	 	 2276 	 	 52 
  83 	 	 304 	 	 201 	 	 9 	 	 2870 	 	 3055 	 	 64 
  84 	 	 772 	 	 3 	 	 8 	 	 698 	 	 764 	 	 77 
  85 	 	 361 	 	 258 	 	 9 	 	 1177 	 	 1322 	 	 100 
  86 	 	 351 	 	 408 	 	 99 	 	 129 	 	 298 	 	 70 
  87 	 	 167 	 	 615 	 	 8 	 	 587 	 	 746 	 	 84 
  88 	 	 407 	 	 112 	 	 2 	 	 2426 	 	 2593 	 	 60 
  89 	 	 603 	 	 965 	 	 3 	 	 3003 	 	 3069 	 	 51 
  90 	 	 571 	 	 716 	 	 10 	 	 2362 	 	 2549 	 	 58 
  91 	 	 244 	 	 45 	 	 100 	 	 1157 	 	 1312 	 	 93 
  92 	 	 992 	 	 585 	 	 79 	 	 955 	 	 1150 	 	 72 
  93 	 	 565 	 	 341 	 	 10 	 	 248 	 	 344 	 	 77 
  94 	 	 227 	 	 508 	 	 90 	 	 1464 	 	 1578 	 	 96 
  95 	 	 985 	 	 760 	 	 2 	 	 2469 	 	 2585 	 	 68 
  96 	 	 525 	 	 791 	 	 8 	 	 1927 	 	 2018 	 	 55 
  97 	 	 689 	 	 601 	 	 9 	 	 784 	 	 846 	 	 86 
  98 	 	 595 	 	 535 	 	 2 	 	 2220 	 	 2327 	 	 87 
  99 	 	 671 	 	 173 	 	 7 	 	 2520 	 	 2650 	 	 90 
  100 	 	 964 	 	 726 	 	 8 	 	 2682 	 	 2779 	 	 50 
 